2113
[0, 28, 50, 30, 53, 31, 62, 52, 51, 24, 25, 27, 26, 19, 20, 21, 48, 35, 23, 49, 22, 59, 63, 29, 55, 33, 56, 32, 54, 64, 38, 34, 57, 58, 4, 39, 6, 5, 7, 36, 8, 40, 41, 60, 13, 46, 12, 44, 11, 45, 42, 43, 9, 14, 47, 10, 15, 16, 17, 18, 61, 1, 37, 2, 3, 0]
